; benchmark generated from python API
(set-info :status unknown)
(declare-datatypes ((RealState 0)) (((RMk1 (rval1 Real)) (RMk2 (rval2 Real)))))
 (assert
 (forall ((|v9:0| Real) )(exists ((|v8:1_st| RealState) (val!1045 Real) )(forall ((|v7:2| Real) )(exists ((|v6:3_st| RealState) (val!1046 Real) )(forall ((|v5:4| Real) )(exists ((|v4:5_st| RealState) (val!1047 Real) )(forall ((|v3:6| Real) )(exists ((|v2:7_st| RealState) (val!1048 Real) )(forall ((|v1:8| Real) )(exists ((|v0:9_st| RealState) (val!1049 Real) )(let ((?x822 (- 15.0)))
 (let ((?x714 (+ (+ (* (- 16.0) (rval2 |v2:7_st|)) (* (- 11.0) |v1:8|)) (* (- 17.0) |v7:2|))))
 (let ((?x897 (- 8.0)))
 (let (($x305 (<= (+ (+ (* 8.0 (rval2 |v0:9_st|)) (* 5.0 |v1:8|)) (* 15.0 |v1:8|)) ?x897)))
 (let ((?x702 (* 10.0 |v5:4|)))
 (let (($x560 (<= (+ (+ (* 16.0 (rval2 |v0:9_st|)) (* 8.0 (rval2 |v8:1_st|))) ?x702) 2.0)))
 (let ((?x580 (rval2 |v6:3_st|)))
 (let ((?x1231 (* 15.0 ?x580)))
 (let (($x54 (and (<= (+ (+ (* 8.0 |v7:2|) (* 19.0 (rval2 |v8:1_st|))) ?x1231) 7.0) $x560)))
 (let ((?x260 (- 9.0)))
 (let (($x1182 (<= (+ (+ (* ?x897 |v9:0|) (* (- 11.0) |v9:0|)) (* 14.0 (rval2 |v8:1_st|))) ?x260)))
 (let ((?x817 (* ?x822 |v5:4|)))
 (let (($x346 (<= (+ (+ (* (- 6.0) (rval2 |v8:1_st|)) (* 14.0 (rval2 |v4:5_st|))) ?x817) 10.0)))
 (let (($x357 (<= (+ (+ (* (- 10.0) |v9:0|) (* (- 20.0) |v1:8|)) (* 19.0 |v3:6|)) 9.0)))
 (let ((?x516 (- 7.0)))
 (let ((?x723 (+ (+ (* 3.0 ?x580) (* (- 13.0) (rval2 |v0:9_st|))) (* (- 19.0) |v5:4|))))
 (let (($x440 (and (and (or (<= ?x723 ?x516) $x357) (and $x346 $x1182)) (and $x54 (and $x305 (<= ?x714 ?x822))))))
 (let ((?x1026 (* 9.0 |v9:0|)))
 (let ((?x167 (+ (+ (* (- 1.0) (rval2 |v8:1_st|)) (* (- 6.0) (rval2 |v0:9_st|))) ?x1026)))
 (let (($x125 (<= (+ (+ (* 16.0 (rval2 |v0:9_st|)) (* 2.0 |v3:6|)) (* 18.0 |v1:8|)) 3.0)))
 (let (($x398 (<= (+ (+ (* (- 6.0) |v1:8|) (* 13.0 (rval2 |v4:5_st|))) (rval2 |v0:9_st|)) ?x516)))
 (let ((?x733 (+ (+ (* ?x260 |v5:4|) (* (- 3.0) (rval2 |v2:7_st|))) (* (- 19.0) |v7:2|))))
 (let (($x909 (or (<= (+ (+ (rval2 |v0:9_st|) (* ?x516 ?x580)) (* 19.0 |v3:6|)) ?x260) (<= (+ (+ (* (- 17.0) |v9:0|) (* ?x260 |v5:4|)) ?x817) (- 16.0)))))
 (let (($x297 (<= (+ (+ (* 7.0 |v1:8|) (* 15.0 |v3:6|)) (* ?x260 (rval2 |v4:5_st|))) 0.0)))
 (let (($x14 (<= (+ (+ (* 10.0 |v1:8|) (* 13.0 |v5:4|)) (* (- 20.0) (rval2 |v8:1_st|))) 9.0)))
 (let (($x326 (or (or (or $x14 $x297) $x909) (or (and (<= ?x733 14.0) $x398) (or $x125 (<= ?x167 ?x516))))))
 (let ((?x1413 (rval2 |v2:7_st|)))
 (let ((?x181 (* 19.0 ?x1413)))
 (let (($x431 (<= (+ (+ (* (- 16.0) ?x580) (* 8.0 |v7:2|)) (* ?x260 |v9:0|)) 11.0)))
 (let (($x354 (and $x431 (<= (+ (+ (* 7.0 ?x580) (* 7.0 (rval2 |v4:5_st|))) ?x181) 11.0))))
 (let ((?x1288 (+ (+ (* (- 5.0) |v9:0|) (* ?x822 (rval2 |v0:9_st|))) (* (- 3.0) |v5:4|))))
 (let (($x373 (<= (+ (+ (* (- 3.0) |v1:8|) (* 12.0 |v7:2|)) (* (- 11.0) ?x1413)) 15.0)))
 (let (($x883 (<= (+ (+ (* 0.0 |v9:0|) (* (- 20.0) |v1:8|)) (rval2 |v8:1_st|)) 9.0)))
 (let ((?x416 (- 11.0)))
 (let ((?x934 (rval2 |v0:9_st|)))
 (let (($x1019 (<= (+ (+ (* (- 18.0) (rval2 |v8:1_st|)) (* (- 6.0) |v3:6|)) ?x934) ?x416)))
 (let (($x668 (<= (+ (+ (* (- 4.0) |v1:8|) (* (- 13.0) |v9:0|)) (* ?x260 |v5:4|)) 8.0)))
 (let (($x307 (<= (+ (+ (* (- 14.0) ?x1413) |v7:2|) (* (- 13.0) (rval2 |v4:5_st|))) 10.0)))
 (let (($x589 (and (and (or $x307 $x668) (or $x1019 $x883)) (and (and $x373 (<= ?x1288 ?x822)) $x354))))
 (let (($x99 (<= (+ (+ (* ?x897 |v1:8|) (* (- 16.0) |v5:4|)) (* 8.0 (rval2 |v4:5_st|))) 2.0)))
 (let (($x467 (and $x99 (<= (+ (+ (* 4.0 |v3:6|) (* 4.0 |v3:6|)) (* 2.0 ?x580)) 15.0))))
 (let ((?x63 (- 5.0)))
 (let (($x961 (<= (+ (+ (* 7.0 |v3:6|) (* 12.0 |v5:4|)) (* (- 13.0) |v1:8|)) ?x63)))
 (let ((?x1247 (- 13.0)))
 (let ((?x790 (+ (+ (* 9.0 (rval2 |v4:5_st|)) (* 17.0 (rval2 |v4:5_st|))) (* ?x63 |v3:6|))))
 (let ((?x1196 (- 3.0)))
 (let (($x529 (<= (+ (+ (* 7.0 |v1:8|) (* ?x63 |v7:2|)) (* (- 6.0) |v7:2|)) ?x1196)))
 (let ((?x615 (+ (+ (* (- 18.0) (rval2 |v4:5_st|)) (* (- 14.0) ?x934)) (* 15.0 |v7:2|))))
 (let ((?x742 (- 2.0)))
 (let ((?x233 (+ (+ (* 12.0 ?x1413) (* ?x63 (rval2 |v4:5_st|))) (* (- 19.0) (rval2 |v4:5_st|)))))
 (let (($x828 (or (or (or (<= ?x233 ?x742) (<= ?x615 3.0)) (or $x529 (<= ?x790 ?x1247))) (and $x961 $x467))))
 (let (($x945 (not (= |v0:9_st| (RMk1 val!1049)))))
 (let (($x729 (not (= |v2:7_st| (RMk1 val!1048)))))
 (let (($x655 (not (= |v4:5_st| (RMk1 val!1047)))))
 (let (($x501 (not (= |v6:3_st| (RMk1 val!1046)))))
 (let (($x699 (not (= |v8:1_st| (RMk1 val!1045)))))
 (and $x699 $x501 $x655 $x729 $x945 (or (or $x828 $x589) (and $x326 $x440))))))))))))))))))))))))))))))))))))))))))))))))))))))))))))
 )
 )
 )
 )
 )
 )
 )
 )
 )
 )
(check-sat)
